webassembly/ejemplos_dzn/folder15_json_45.dzn
TERM = { '.', 's(5)', 'in_1', 'in_6', 'in_0', 's(4)', 'in_3', 's(1)', 's(7)', 's(2)', 's(9)', 'in_2', 's(8)', 's(6)', 's(0)', 's(3)', 'local_0', 'local_1', 'in_4', 'in_7', 'in_5', 's(10)'};
null = '.';
s = 15;
n = 14;
ndeps = 9;
max_registers_sz = 5;
NR = 2;
registers = [|'local_0', 's(5)', |'local_1', 'in_4'|];
dependencies = [|'call[function_index(0)]_0', 'i32.load8_s_1', |'i32.load8_s_1', 'i32.store16_3', |'i32.store16_3', 'i32.load8_s_4', |'i32.load8_s_4', 'call[function_index(1)]_5', |'call[function_index(1)]_5', 'i32.store_6', |'i32.store_6', 'i32.load_7', |'i32.load_7', 'call[function_index(2)]_10', |'call[function_index(2)]_10', 'i32.load8_u_11', |'call[function_index(2)]_10', 'i32.load8_u_13'|];
GET_ENUM = { GET1, GET2, GET3, GET4, GET5, GET6, GET7};
SET_ENUM = { SET1, SET2, SET3, SET4, SET5, SET6, SET7};
TEE_ENUM = { TEE1, TEE2, TEE3, TEE4, TEE5, TEE6, TEE7};
N = 11;
OP = { 'call[function_index(0)]_0', 'call[function_index(1)]_5', 'call[function_index(2)]_10', 'i32.load8_s_1', 'i32.store16_3', 'i32.load8_s_4', 'i32.store_6', 'i32.load_7', 'i32.load8_u_11', 'i32.add_0', 'i32.load8_u_13' };
in_ops = [2, 0, 3, 1, 2, 1, 2, 1, 1, 2, 1 ];
out_ops = [3, 0, 2, 1, 0, 1, 0, 1, 1, 1, 1 ];
in1 = ['in_0', '.', 'in_5', 's(2)', 's(3)', 's(0)', 's(4)', 'in_3', 's(7)', 's(8)', 's(9)' ];
in2 = ['in_1', '.', 'in_6', '.', 's(1)', '.', 'in_2', '.', '.', 's(6)', '.' ];
in3 = ['.', '.', 'in_7', '.', '.', '.', '.', '.', '.', '.', '.' ];
out1 = ['s(2)', '.', 's(7)', 's(3)', '.', 's(4)', '.', 's(5)', 's(8)', 's(9)', 's(10)' ];
out2 = ['s(1)', '.', 's(6)', '.', '.', '.', '.', '.', '.', '.', '.' ];
out3 = ['s(0)', '.', '.', '.', '.', '.', '.', '.', '.', '.', '.' ];
comm = [false, false, false, false, false, false, false, false, false, true, false ];
gas = [1, 1, 1, 1, 1, 1, 1, 1, 1, 1, 1 ];
sz = [1, 1, 1, 1, 1, 1, 1, 1, 1, 1, 1 ];
stor = [true, true, true, false, true, false, true, false, false, false, false ];
lb = [ 1, 1, 1, 1, 1, 1, 1, 1, 1, 1, 1 ];
ub = [ 15, 15, 15, 15, 15, 15, 15, 15, 15, 15, 15 ];
startstack = [ 'in_0', 'in_1', 'in_2', 'in_3', 'in_4', 'in_5', 'in_6', 'in_7', null, null, null, null, null, null ];
endstack = [ 'in_4', 's(10)', null, null, null, null, null, null, null, null, null, null, null, null ];
